% File represents an instance of a Composite Structure problem to be solved by a CP framework
% Created on 2025-03-26 10:41:23.280
T = 50;
n = 16;
m = 24;
edges = [(1, 2),
(5, 6),
(9, 10),
(13, 14),
(2, 3),
(6, 7),
(10, 11),
(14, 15),
(4, 3),
(8, 7),
(12, 11),
(16, 15),
(5, 1),
(9, 5),
(13, 9),
(6, 2),
(10, 6),
(14, 10),
(3, 7),
(11, 7),
(15, 11),
(4, 8),
(12, 8),
(16, 12)];
counts = [|8, 4, 8, 14,
|6, 4, 6, 14,
|6, 2, 6, 14,
|8, 2, 8, 14,
|8, 6, 8, 16,
|6, 4, 6, 16,
|6, 2, 6, 12,
|8, 2, 8, 12,
|10, 6, 10, 18,
|8, 4, 8, 18,
|8, 2, 8, 14,
|8, 2, 8, 18,
|12, 6, 12, 20,
|10, 6, 10, 18,
|10, 2, 10, 16,
|10, 4, 10, 18|];
